%chk=CP22CA_c2.M062X_6-311pGd_opt_water_GD3.chk
# M062X/6-311+G* SCF=Tight INT(grid=ultrafine) OPT IOP(2/17=4)   EmpiricalDispersion=GD3  SCRF=(SMD,Solvent=h2o)

CP22CA_c2.M062X_6-311pGd_opt_water_GD3

0 1
C     -5.8976461129    1.4896156758    0.1533103857
N     -4.6687175827    0.8662199881   -0.0787325785
C     -3.4294612897    1.3799767149    0.1774239185
O     -3.1960035864    2.4911022439    0.6075620897
O     -2.4937193842    0.4725144922   -0.1151390186
C     -1.1255690851    0.8746885566    0.1155010171
C     -0.2373212353   -0.2873021156   -0.2658348645
C      1.2286441744    0.0695167285   -0.0449042416
C     -7.0305255833    0.6689092811    0.1737179315
C     -8.2631254074    1.2529124996    0.3865768055
C     -8.4470122448    2.6132834192    0.5844595870
C     -7.3017615330    3.3930200121    0.5469173171
C     -6.0359557697    2.8675771836    0.3307603085
H     -4.6952742998   -0.1093580727   -0.3517043651
H     -1.0134605425    1.1359353412    1.1696863532
H     -0.9162079905    1.7572231853   -0.4923339368
H     -0.4118317930   -0.5433318860   -1.3143745960
H     -0.5104227611   -1.1591459875    0.3348106034
H      1.5197582071    0.9314840410   -0.6504508414
H      1.8774207501   -0.7645429447   -0.3169603949
H      1.4205513615    0.3151810075    1.0026020039
H     -6.9220336640   -0.3991726614    0.0294531791
Cl    -7.4586291864    5.1143661823    0.7687221412
H     -5.1780603050    3.5213238010    0.2946048563
S     -9.7190053544    0.1829090285    0.4188592786
H     -9.4202556792    3.0535309650    0.7547422660
F     -8.9817812666   -0.9398947084    1.3177536449
F    -10.2964307661    0.8724456278    1.7618549733
F     -9.2758516704   -0.6056844378   -0.9206727888
F    -10.5927347222    1.2051660642   -0.4775784741
F    -11.0237456775   -0.7720492257    0.4488874397





--Link1--
%chk=CP22CA_c2.M062X_6-311pGd_opt_water_GD3.chk
# M062X/6-311+G* SCF=Tight INT(grid=ultrafine)     SCRF=(SMD,Solvent=h2o) EmpiricalDispersion=GD3  Freq=Noraman 
geom=check guess=read IOP(2/17=4)

CP22CA_c2.M062X_6-311pGd_opt_water_GD3

0 1



