%chk=NM2.MP2_GTMP2LARGE.chk
# MP2/Gen 5D SCF=Tight INT(grid=ultrafine)    

NM2.MP2_GTMP2LARGE

0 1
C     -5.9099550208    1.1029102801    0.2059437350
N     -4.6494767407    0.5182841404    0.0777892364
C     -3.4138117188    1.1630544142    0.1461509459
O     -3.2849333303    2.3475327393    0.3578042168
N     -2.3540075044    0.3092653719   -0.0209191281
C     -1.0062482953    0.8624790515   -0.0817512412
C      0.0280975331   -0.2528611764   -0.0502013951
C      1.4484660143    0.3008155964   -0.1048682475
C     -6.1274416311    2.4844711590    0.1430033865
C     -7.4141319609    2.9940043568    0.2479216523
C     -8.5133997698    2.1441298990    0.4285202959
C     -8.2862282832    0.7731861788    0.4796406160
C     -7.0074316598    0.2564419841    0.3714194019
H     -4.6362012495   -0.4894107678    0.1293869442
H     -2.5094227633   -0.5504332390   -0.5275484910
H     -0.8831189383    1.5247886590    0.7765518953
H     -0.8826544472    1.4787579946   -0.9799953312
H     -0.1340431108   -0.9289267974   -0.8982055488
H     -0.1138658777   -0.8451207642    0.8586148971
H      1.6129378672    0.8769409254   -1.0184913194
H      2.1869941428   -0.5016664591   -0.0800088839
H      1.6445455155    0.9605415683    0.7435347149
H     -5.2906362333    3.1527747816    0.0160013344
H     -6.8611330525   -0.8179860945    0.4200742544
C     -9.9405732722    2.6232346345    0.5358963699
C     -7.5514864036    4.5022174458    0.1938858370
H     -9.1214485945    0.0987615974    0.6164686543
F    -10.0649794547    3.6980410318    1.3196454496
F    -10.7280081479    1.6685333292    1.0599639754
F    -10.4643725553    2.9303579665   -0.6588691509
F     -6.4692132740    5.0731571004   -0.3491007019
F     -7.6946869392    5.0289562193    1.4162054480
F     -8.6009508436    4.8863368726   -0.5400438223

@/home/507/hio507/Basis/GTMP2LARGE.gbs/N


