$molecule
  0 1
    C     -6.0635807212    1.3542496482    0.3272924859
    N     -4.7938026145    0.7948202192    0.1963291461
    C     -3.5875129536    1.4529506957    0.1100083698
    O     -3.4209036541    2.6433882887    0.1277832085
    O     -2.6084719663    0.5429357990    0.0007516720
    C     -1.2777566449    1.0770033745   -0.0997123396
    C     -0.3208903830   -0.0902293711   -0.2073466220
    C      1.1213272101    0.3969987839   -0.3179395529
    C     -6.2905409748    2.7357647924    0.3940812289
    C     -7.5878632977    3.2056399824    0.5270793799
    C     -8.6465887735    2.3066293632    0.5927040637
    C     -8.4372514966    0.9312987539    0.5294873348
    C     -7.1453956881    0.4621849053    0.3979313898
    H     -4.7326646931   -0.2123906061    0.1633643071
    H     -1.0766942190    1.6869352244    0.7842326607
    H     -1.2258345129    1.7276070679   -0.9760062010
    H     -0.5883893103   -0.6911117196   -1.0807177899
    H     -0.4407187989   -0.7307282757    0.6706039631
    H      1.2620973218    1.0234478249   -1.2020332148
    H      1.8128573624   -0.4428268606   -0.3940394764
    H      1.4096608105    0.9856037852    0.5562996529
    H     -5.4617342307    3.4249202312    0.3475547454
    C    -10.7750630882    3.1114294259   -1.0672188869
    H     -9.2767097459    0.2491244509    0.5959053562
    H     -6.9640375505   -0.6066589381    0.3542437000
    F    -10.7028406676    1.9392798465   -1.6850585440
    F    -12.0127500047    3.5676472414   -1.1344862324
    F     -9.9563254832    3.9651037789   -1.6668835506
    S    -10.2923804446    2.9171140092    0.7255936529
    O    -10.2770332287    4.2614028654    1.2603651205
    O    -11.1584857299    1.8772018272    1.2390629126
    H     -7.7801518283    4.2704335856    0.5921680595
    
$end

$rem

    JOBTYPE               sp
    METHOD                CCSD(T)
    BASIS                 6-31+G*
    CC_BACKEND            XM
    
    MEM_TOTAL             60000
$end
