%chk=CP21CA.M062X_6-311pGd_opt_water_GD3.chk
# M062X/6-311+G* SCF=Tight INT(grid=ultrafine) OPT=CalcFC IOP(2/17=4)   EmpiricalDispersion=GD3  SCRF=(SMD,Solvent=h2o)

CP21CA.M062X_6-311pGd_opt_water_GD3

0 1
C     -6.0963500000    1.2272700000    0.1441800000
N     -4.8359300000    0.5433800000    0.0284300000
C     -3.5799200000    1.0820900000    0.0609500000
O     -3.3992000000    2.2800500000    0.2070900000
O     -2.3896300000    0.1586700000   -0.0831600000
C     -1.0865100000    0.7466700000    0.4796400000
C      0.0782800000   -0.2342900000    0.3004100000
C      1.0486900000   -0.1602800000    1.4754900000
C     -6.3422400000    2.5417800000   -0.3227200000
C     -7.6033300000    3.1286700000   -0.1682200000
C     -8.6411300000    2.4269700000    0.4528200000
C     -8.4136000000    1.1304100000    0.9157100000
C     -7.1583700000    0.5386400000    0.7624300000
H     -4.8830200000   -0.4811500000   -0.0888200000
H     -1.2203400000    0.9626100000    1.5628800000
H     -0.8509200000    1.6955900000   -0.0512300000
H      0.6286200000    0.0067800000   -0.6352600000
H     -0.3145300000   -1.2718400000    0.2257400000
H      1.4741300000    0.8622200000    1.5616700000
H      1.8800100000   -0.8792400000    1.3171000000
H      0.5289500000   -0.4209200000    2.4220800000
H     -5.5986400000    3.1448100000   -0.8106100000
C    -11.7748200000    2.6081500000   -0.1839800000
H     -9.2103900000    0.5761200000    1.3955800000
H     -7.0136500000   -0.4688800000    1.1322300000
F    -12.0542500000    1.3062800000    0.1850200000
F    -12.8328700000    3.4209900000    0.1762100000
F    -11.5926000000    2.6752400000   -1.5517400000
S    -10.2654100000    3.1649100000    0.6570800000
O    -10.1328700000    4.6794900000    0.4326200000
O    -10.5573000000    3.1827600000    2.1653300000
H     -7.7668300000    4.1336100000   -0.5355100000





--Link1--
%chk=CP21CA.M062X_6-311pGd_opt_water_GD3.chk
# M062X/6-311+G* SCF=Tight INT(grid=ultrafine)   EmpiricalDispersion=GD3  SCRF=(SMD,Solvent=h2o)  Freq=Noraman
geom=check guess=read IOP(2/17=4)

CP21CA.M062X_6-311pGd_opt_water_GD3

0 1



