%chk=CP19_c2.M062X_6-311pGd_opt_water_GD3.chk
# M062X/6-311+G* SCF=Tight INT(grid=ultrafine) OPT IOP(2/17=4)   EmpiricalDispersion=GD3  SCRF=(SMD,Solvent=h2o)

CP19_c2.M062X_6-311pGd_opt_water_GD3

0 1
C     -6.2594599114    1.4396763385   -0.0563854177
N     -5.0117939284    0.8250037092   -0.0360338624
C     -3.7656225581    1.4284689200   -0.0432094012
O     -3.6096846793    2.6503632342   -0.0832252807
N     -2.7309655683    0.5666667535    0.0014923080
C     -1.3540686385    1.0454116522    0.0083150189
C     -0.3889112118   -0.1274218208    0.0482427035
C      1.0573155395    0.3520346328    0.0551907355
C     -7.3644707068    0.6129081206    0.2007504096
C     -8.6415586415    1.1333796211    0.1803938817
C     -8.8688356203    2.4851703098   -0.0886911853
C     -7.7675923217    3.2947164865   -0.3452411086
C     -6.4740765402    2.7936686769   -0.3361947313
H     -5.0261449232   -0.1806352900    0.0835221030
H     -2.8972394763   -0.4306104051    0.0270041460
H     -1.1982521661    1.6921347486    0.8765280766
H     -1.1755801264    1.6499067479   -0.8855211336
H     -0.5670332423   -0.7705698623   -0.8191789342
H     -0.5894752507   -0.7293004064    0.9400852819
H      1.2804758530    0.9391383747   -0.8393759003
H      1.7503668451   -0.4907501589    0.0832950809
H      1.2586417894    0.9801496634    0.9267530753
H     -7.2130718190   -0.4383818815    0.4172103109
Cl    -9.9681856289    0.0484538885    0.5085739126
C    -10.2498005325    3.0620343228   -0.1091225932
H     -7.9177423478    4.3445351604   -0.5639466335
H     -5.6476489054    3.4511282180   -0.5508633254
F    -10.2424835514    4.3719373247   -0.3900252331
F    -11.0412958430    2.4790467797   -1.0292658548
F    -10.8843058877    2.9285061410    1.0710735507





--Link1--
%chk=CP19_c2.M062X_6-311pGd_opt_water_GD3.chk
# M062X/6-311+G* SCF=Tight INT(grid=ultrafine)     SCRF=(SMD,Solvent=h2o)EmpiricalDispersion=GD3 Freq=Noraman 
geom=check guess=read IOP(2/17=4)

CP19_c2.M062X_6-311pGd_opt_water_GD3

0 1



