%chk=CP19.M062X_6-311pGd_opt_water_GD3.chk
# M062X/6-311+G* SCF=Tight INT(grid=ultrafine) OPT IOP(2/17=4)   EmpiricalDispersion=GD3  SCRF=(SMD,Solvent=h2o)

CP19.M062X_6-311pGd_opt_water_GD3

0 1
C     -6.3221079040    1.2371241456    0.0021012766
N     -5.0475074328    0.6819774299    0.0483273001
C     -3.8302430138    1.3363625747   -0.0315193675
O     -3.7316768121    2.5584524227   -0.1594758127
N     -2.7561294147    0.5260607114    0.0323744129
C     -1.4037354736    1.0693245309   -0.0100618144
C     -0.3818476796   -0.0539983740    0.0376601436
C      1.0386894483    0.4961819379    0.0064169638
C     -6.5778327755    2.6118022215    0.0833628314
C     -7.8879924900    3.0597912508    0.0424411884
C     -8.9677838126    2.1865335469   -0.0723598973
C     -8.6998874138    0.8200419257   -0.1426257133
C     -7.4020609139    0.3493597164   -0.1073371619
H     -5.0203082441   -0.3305332257    0.0640781785
H     -2.8732572390   -0.4655584885    0.1913195968
H     -1.2554598676    1.7503269389    0.8334918649
H     -1.2799227857    1.6526357592   -0.9262884613
H     -0.5439124833   -0.7251238448   -0.8113660445
H     -0.5356435084   -0.6438532799    0.9468327717
H      1.2151199264    1.0756397536   -0.9034534510
H      1.7734060418   -0.3104365272    0.0367004256
H      1.2247826828    1.1508335890    0.8616723444
H     -5.7740190534    3.3232679231    0.1816681030
Cl    -8.1448759335    4.7836082480    0.1490190584
C    -10.3812161996    2.6782588179   -0.1188573603
H     -9.5175245768    0.1156466258   -0.2290914620
H     -7.2134356017   -0.7167051711   -0.1652376468
F    -11.2572208783    1.6712163514   -0.2392597823
F    -10.7315826120    3.3575902282    0.9894262183
F    -10.6083639796    3.5065222617   -1.1557087032





--Link1--
%chk=CP19.M062X_6-311pGd_opt_water_GD3.chk
# M062X/6-311+G* SCF=Tight INT(grid=ultrafine)     SCRF=(SMD,Solvent=h2o)EmpiricalDispersion=GD3 Freq=Noraman 
geom=check guess=read IOP(2/17=4)

CP19.M062X_6-311pGd_opt_water_GD3

0 1



