%chk=CP19_c2.M062X_6-311pGd_opt_Pentadecane_GD3.chk
# M062X/6-311+G* SCF=Tight INT(grid=ultrafine) OPT IOP(2/17=4)   EmpiricalDispersion=GD3  SCRF=(SMD,Solvent=n-Pentadecane)

CP19_c2.M062X_6-311pGd_opt_Pentadecane_GD3

0 1
C     -6.2652696186    1.4321029761   -0.0164501037
N     -5.0137886776    0.8249065946    0.0510945484
C     -3.7666643655    1.4241981726   -0.1017063735
O     -3.6124459874    2.5959342012   -0.3835807846
N     -2.7284250523    0.5564474523    0.0717085199
C     -1.3557349991    1.0430986463    0.0407649448
C     -0.3826573527   -0.1261601170    0.0177300852
C      1.0645624861    0.3511535120   -0.0149802611
C     -7.3791346906    0.6020309011    0.1762986968
C     -8.6575100527    1.1223607680    0.1313784100
C     -8.8723346090    2.4815658047   -0.1033842578
C     -7.7602738139    3.2956307999   -0.2914647455
C     -6.4671609532    2.7961049609   -0.2536114144
H     -5.0246061641   -0.1779273365    0.1690318836
H     -2.8943092001   -0.3205700387    0.5447386260
H     -1.1578302558    1.6891773816    0.9038412873
H     -1.2360639254    1.6568384364   -0.8537962970
H     -0.5952167725   -0.7498327777   -0.8559798909
H     -0.5429840639   -0.7522512968    0.9032462121
H      1.2580197628    0.9608682426   -0.9011257752
H      1.7576271011   -0.4918410913   -0.0343111328
H      1.3021821157    0.9564373917    0.8635188543
H     -7.2469301754   -0.4571805015    0.3674120938
Cl    -9.9902131651    0.0283998410    0.3798132979
C    -10.2538076677    3.0644574776   -0.1548206447
H     -7.9058765661    4.3526447374   -0.4759608680
H     -5.6255118158    3.4516891730   -0.4086423818
F    -10.2245989214    4.3842718479   -0.3902646930
F    -11.0058477974    2.5178138489   -1.1240463751
F    -10.9256948022    2.8943999917    0.9956985388





--Link1--
%chk=CP19_c2.M062X_6-311pGd_opt_Pentadecane_GD3.chk
# M062X/6-311+G* SCF=Tight INT(grid=ultrafine)     SCRF=(SMD,Solvent=n-Pentadecane)EmpiricalDispersion=GD3 Freq=Noraman 
geom=check guess=read IOP(2/17=4)

CP19_c2.M062X_6-311pGd_opt_Pentadecane_GD3

0 1



