%chk=NM2CA_c2.MP2_GTMP2LARGE.chk
# MP2/Gen 5D SCF=Tight INT(grid=ultrafine)    

NM2CA_c2.MP2_GTMP2LARGE

0 1
C     -5.8165102221    1.5024757836    0.2212603451
N     -4.5791064725    0.8589135928    0.1642559533
C     -3.3378077155    1.4444796831    0.0808085345
O     -3.1074249503    2.6246873298    0.0494415844
O     -2.4064932612    0.4801661694    0.0391363875
C     -1.0471361910    0.9380336952   -0.0493378016
C     -0.1532739999   -0.2821582920   -0.0932824801
C      1.3154860527    0.1222409537   -0.1870050800
C     -6.9541491172    0.6899558620    0.2899922494
C     -8.2250788661    1.2347241791    0.3458269295
C     -8.3870746121    2.6273343332    0.3455348755
C     -7.2522505671    3.4251563159    0.2717014226
C     -5.9734453456    2.8878728966    0.2107852248
H     -4.5779711915   -0.1505288053    0.1771641896
H     -0.8317760910    1.5684931723    0.8167439900
H     -0.9408663987    1.5520586648   -0.9468626421
H     -0.4345210724   -0.8987901162   -0.9512051984
H     -0.3268576954   -0.8832626467    0.8033291339
H      1.5089473730    0.7092770821   -1.0880560087
H      1.9614049074   -0.7558771273   -0.2192468860
H      1.6171978610    0.7242534288    0.6734993705
H     -6.8412039748   -0.3878111577    0.2915328773
H     -5.1119629431    3.5353274358    0.1567335482
C     -9.7328207716    3.3095359279    0.3812052674
C     -9.3853925872    0.2675952419    0.4469490010
H     -7.3638899367    4.5017996182    0.2684964863
F    -10.5688581647    2.7450489931    1.2588093709
F    -10.3362222839    3.2975689582   -0.8152764807
F     -9.6101243373    4.5981137972    0.7342993170
F     -9.0189592434   -0.9692559193    0.0732078339
F    -10.4086768562    0.6201301961   -0.3335127550
F     -9.8405213257    0.1679207535    1.7011414395

@/home/507/hio507/Basis/GTMP2LARGE.gbs/N


