%chk=NM2CA_c2.M062X_6-311pGd_opt_water_GD3.chk
# M062X/6-311+G* SCF=Tight INT(grid=ultrafine) OPT IOP(2/17=4)   EmpiricalDispersion=GD3  SCRF=(SMD,Solvent=h2o)

NM2CA_c2.M062X_6-311pGd_opt_water_GD3

0 1
C     -5.8220807541    1.5049634068    0.1004197829
N     -4.5909042483    0.8564259744    0.0009355345
C     -3.3514016190    1.4300806319   -0.0055859883
O     -3.1163665342    2.6203196857    0.0371850408
O     -2.4141073389    0.4788147174   -0.0639934540
C     -1.0442189550    0.9362006642   -0.0650501800
C     -0.1549158295   -0.2847040323   -0.1244750392
C      1.3134947725    0.1262715466   -0.1332642938
C     -6.9396405978    0.6940563711    0.3392376995
C     -8.2050552212    1.2398509081    0.4478729074
C     -8.3867448312    2.6255820549    0.3085800009
C     -7.2730246706    3.4198765234    0.0716576983
C     -5.9978989658    2.8800338183   -0.0375718820
H     -4.6058236245   -0.1564601123    0.0215281527
H     -0.8705437710    1.5151552758    0.8442536782
H     -0.8951661977    1.5841156044   -0.9312680934
H     -0.3937371643   -0.8586373695   -1.0239468517
H     -0.3649173639   -0.9235287236    0.7376808707
H      1.5415739461    0.7536625220   -0.9985840427
H      1.9622564317   -0.7500596937   -0.1753983458
H      1.5703563926    0.6900053851    0.7671074324
H     -6.7976106368   -0.3749763951    0.4446571698
H     -5.1613966258    3.5318443578   -0.2341237393
C     -9.7229288908    3.3040710873    0.4378626367
C     -9.3482014994    0.2816435117    0.6795365694
H     -7.3913127532    4.4900349306   -0.0395812125
F    -10.7047876789    2.6440017810   -0.1981333278
F     -9.7030991740    4.5420993402   -0.0749978980
F    -10.1134430104    3.4356479667    1.7191629606
F     -8.9224328373   -0.9034243178    1.1350398341
F    -10.0338790328    0.0304161511   -0.4483034426
F    -10.2293817164    0.7420964278    1.5796298223





--Link1--
%chk=NM2CA_c2.M062X_6-311pGd_opt_water_GD3.chk
# M062X/6-311+G* SCF=Tight INT(grid=ultrafine)     SCRF=(SMD,Solvent=h2o) EmpiricalDispersion=GD3  Freq=Noraman 
geom=check guess=read IOP(2/17=4)

NM2CA_c2.M062X_6-311pGd_opt_water_GD3

0 1



