%chk=NM2CA.M062X_6-311pGd_opt_Pentadecane_GD3.chk
# M062X/6-311+G* SCF=Tight INT(grid=ultrafine) OPT IOP(2/17=4)   EmpiricalDispersion=GD3  SCRF=(SMD,Solvent=n-Pentadecane)

NM2CA.M062X_6-311pGd_opt_Pentadecane_GD3

0 1
C     -5.8565685073    1.2147694815    0.1592286317
N     -4.5781815135    0.6656335295    0.0745761333
C     -3.3758737493    1.3311616713    0.0724655998
O     -3.2231452131    2.5230863499    0.1545526974
O     -2.3848053372    0.4381490422   -0.0365767399
C     -1.0530552908    0.9849944208   -0.0515512025
C     -0.0819025276   -0.1684063559   -0.1711477787
C      1.3568211946    0.3379548510   -0.1929600006
C     -6.0981624647    2.5836018004    0.3204622368
C     -7.4012887243    3.0558265220    0.3986500404
C     -8.4906377935    2.1799960332    0.3060444486
C     -8.2365471538    0.8200220924    0.1578344551
C     -6.9416905806    0.3398657954    0.0851397039
H     -4.5169032268   -0.3392367888   -0.0129484893
H     -0.8961658488    1.5514847222    0.8693776446
H     -0.9670278386    1.6750408358   -0.8942314440
H     -0.3017816611   -0.7281077505   -1.0844576406
H     -0.2319165708   -0.8509010359    0.6699414123
H      1.5297235716    1.0083037069   -1.0387689776
H      2.0612047751   -0.4909578001   -0.2785725054
H      1.5995087145    0.8858122238    0.7211612411
H     -5.2697055065    3.2712223869    0.3888698224
H     -6.7709089146   -0.7246994480   -0.0349666950
C     -9.9303341009    2.6195932302    0.3939549424
C     -7.5711987125    4.5526466502    0.5494467741
H     -9.0627506994    0.1240459881    0.0908462999
F    -10.1747005371    3.7333187821   -0.3065106918
F    -10.3189796640    2.8500833684    1.6576760367
F    -10.7551489155    1.6751207384   -0.0867420055
F     -6.4482774655    5.1349705464    0.9878923848
F     -8.5346188699    4.8682105460    1.4230883735
F     -7.8773108683    5.1399138644   -0.6162747081





--Link1--
%chk=NM2CA.M062X_6-311pGd_opt_Pentadecane_GD3.chk
# M062X/6-311+G* SCF=Tight INT(grid=ultrafine)     SCRF=(SMD,Solvent=n-Pentadecane) EmpiricalDispersion=GD3  Freq=Noraman 
geom=check guess=read IOP(2/17=4)

NM2CA.M062X_6-311pGd_opt_Pentadecane_GD3

0 1



