%chk=CP19_c2.MP2_6-31pGd.chk
# MP2/Gen 6D SCF=Tight INT(grid=ultrafine)    

CP19_c2.MP2_6-31pGd

0 1
C     -6.2723304200    1.4157811597   -0.0006268092
N     -5.0228905115    0.7930530560    0.0350288231
C     -3.7728366790    1.4072440652    0.0160819501
O     -3.6095794860    2.6070636568    0.0146574578
N     -2.7340192472    0.5105491394    0.0308891718
C     -1.3707340862    1.0100418431   -0.0989844890
C     -0.3690942356   -0.1077962292    0.1504779418
C      1.0672538533    0.3911555746    0.0281129047
C     -7.3935234681    0.5932937771    0.1665888279
C     -8.6688587036    1.1242917509    0.1226786916
C     -8.8673955835    2.4893488258   -0.0872874356
C     -7.7462770605    3.2960052430   -0.2506130266
C     -6.4571885420    2.7855613836   -0.2106085962
H     -5.0383620591   -0.1967102376    0.2301051026
H     -2.9037689183   -0.4226499675   -0.3157040869
H     -1.2418841584    1.8107001969    0.6310220645
H     -1.2147580036    1.4539093437   -1.0893548604
H     -0.5370531127   -0.9191438891   -0.5678051958
H     -0.5423395604   -0.5259023146    1.1464668854
H      1.2623655568    0.7922771580   -0.9692775949
H      1.7821559004   -0.4127141529    0.2091445643
H      1.2688197240    1.1853501596    0.7507164431
H     -7.2759974095   -0.4722417649    0.3307563214
Cl   -10.0089927485    0.0380259625    0.3370431866
C    -10.2447112205    3.0876849677   -0.1390183572
H     -7.8838643184    4.3575280509   -0.4132489856
H     -5.6066341860    3.4367851958   -0.3323987941
F    -10.1953508559    4.4108054742   -0.3514700238
F    -10.9885083580    2.5642817182   -1.1244726977
F    -10.9221421016    2.9031908532    1.0032506160

@/home/507/hio507/Basis/6-31pGd.gbs/N


