%chk=NM2.M062X_6-311pGd_opt_water_GD3.chk
# M062X/6-311+G* SCF=Tight INT(grid=ultrafine) OPT IOP(2/17=4)   EmpiricalDispersion=GD3  SCRF=(SMD,Solvent=h2o)

NM2.M062X_6-311pGd_opt_water_GD3

0 1
C     -5.8961804209    1.1284387704    0.1706297868
N     -4.6371436806    0.5539355788    0.0335322829
C     -3.4069723340    1.1885674607    0.0902664248
O     -3.2860744019    2.4050133485    0.2485342400
N     -2.3489939719    0.3663249787   -0.0427561874
C     -0.9855704618    0.8766166599    0.0339786943
C      0.0112634334   -0.2532737004   -0.1612200884
C      1.4437930083    0.2597032513   -0.0823912164
C     -6.1390306727    2.5048338550    0.0731426477
C     -7.4287331341    2.9987248905    0.2072054432
C     -8.5086450333    2.1378788528    0.4449422870
C     -8.2606673283    0.7696818858    0.5153553516
C     -6.9787707902    0.2691899597    0.3815906040
H     -4.6271010763   -0.4587761698    0.0054659958
H     -2.4880052866   -0.6302409825   -0.1435319445
H     -0.8283260558    1.3549302369    1.0052638838
H     -0.8434694030    1.6418509571   -0.7339924347
H     -0.1655015098   -0.7263591244   -1.1320908965
H     -0.1560551076   -1.0182242657    0.6035583196
H      1.6340125550    1.0122748496   -0.8519409911
H      2.1601087781   -0.5516048759   -0.2240180158
H      1.6440539502    0.7170442658    0.8899409930
H     -5.3226980248    3.1826697626   -0.1152153500
H     -6.8094841250   -0.7998937603    0.4472750641
C     -9.9304283428    2.6024548768    0.5943116115
C     -7.5898529466    4.4972981128    0.1110400883
H     -9.0776100510    0.0804789631    0.6867705643
F    -10.0415246792    3.7112245842    1.3445921866
F    -10.6962438604    1.6710056222    1.1811958475
F    -10.5153535315    2.8762848021   -0.5870960504
F     -6.5409113165    5.0780404860   -0.4853181061
F     -7.7031971162    5.0735156911    1.3204061357
F     -8.6735070623    4.8539601765   -0.5950071711





--Link1--
%chk=NM2.M062X_6-311pGd_opt_water_GD3.chk
# M062X/6-311+G* SCF=Tight INT(grid=ultrafine)     SCRF=(SMD,Solvent=h2o) EmpiricalDispersion=GD3  Freq=Noraman 
geom=check guess=read IOP(2/17=4)

NM2.M062X_6-311pGd_opt_water_GD3

0 1



