%NprocShared=6
%Mem=10000MB
%chk=29CA_c2.M062X_6-311pGd_opt_GD3.chk
# M062X/6-311+G* SCF=Tight INT(grid=ultrafine) OPT IOP(2/17=4) Symmetry=None   EmpiricalDispersion=GD3  MaxDisk=10000MB

29CA_c2.M062X_6-311pGd_opt_GD3

0 1
C     -6.1848841603    1.4665665351   -0.0768674968
N     -4.9216227840    0.8621401331   -0.0432598817
C     -3.7001194658    1.4854057495   -0.0306763605
O     -3.5023096466    2.6728105734   -0.0503700970
O     -2.7354859476    0.5511062359    0.0075068621
C     -1.3905201031    1.0537335991    0.0250079298
C     -0.4561198719   -0.1359654614    0.0665762931
C      1.0014899913    0.3160712898    0.0878564205
C     -7.2966032470    0.6212545181   -0.0763363284
C     -8.5853364116    1.1327506928   -0.1080487869
C     -8.7768599864    2.5140537697   -0.1410064545
C     -7.6747762053    3.3557378647   -0.1422434605
C     -6.3825710056    2.8484455743   -0.1106930481
H     -4.8902035548   -0.1463998854   -0.0202245413
H     -1.2661027643    1.6978225958    0.8989576541
H     -1.2305902385    1.6643054248   -0.8670284640
H     -0.6465093682   -0.7687739755   -0.8044933092
H     -0.6824681459   -0.7353855481    0.9525322105
H      1.2486794773    0.9011690215   -0.8012717290
H      1.6762053290   -0.5402559268    0.1185582570
H      1.2121887100    0.9356910084    0.9628940115
H     -7.1581540992   -0.4534489317   -0.0507069156
C     -9.7537138716    0.1795468626   -0.1055119813
Cl   -10.3669679451    3.2127089044   -0.1794762058
H     -7.8305982084    4.4272167579   -0.1681693512
H     -5.5369577816    3.5192373603   -0.1119463308
F     -9.3443310566   -1.0982753627   -0.0730667620
F    -10.5450091833    0.3602459008    0.9581194124
F    -10.5135784551    0.3155647194   -1.1982915470





--Link1--
%chk=29CA_c2.M062X_6-311pGd_opt_GD3.chk
# M062X/6-311+G* SCF=Tight INT(grid=ultrafine)   EmpiricalDispersion=GD3    Freq=Noraman  MaxDisk=10000MB
geom=check guess=read IOP(2/17=4)

29CA_c2.M062X_6-311pGd_opt_GD3

0 1



