%chk=29CA_c2.M062X_6-311pGd_opt_water_GD3.chk
# M062X/6-311+G* SCF=Tight INT(grid=ultrafine) OPT IOP(2/17=4)   EmpiricalDispersion=GD3  SCRF=(SMD,Solvent=h2o)

29CA_c2.M062X_6-311pGd_opt_water_GD3

0 1
C     -6.1849930703    1.4735463345    0.0221044073
N     -4.9252373822    0.8672852321    0.1136877967
C     -3.7103753017    1.4643538418   -0.0366055466
O     -3.5160124491    2.6435762434   -0.2578185764
O     -2.7371077553    0.5545884456    0.0946731675
C     -1.3862989618    1.0444746399   -0.0434782683
C     -0.4526800499   -0.1290128113    0.1478176721
C      0.9992616420    0.3185545309    0.0183860096
C     -7.2880009214    0.6204429778   -0.0706479553
C     -8.5744860776    1.1311643575   -0.1404147422
C     -8.7713830994    2.5129435191   -0.1244333726
C     -7.6814530945    3.3621967559   -0.0323062950
C     -6.3906117356    2.8534055990    0.0456407377
H     -4.9108867698   -0.1387915041    0.2306658392
H     -1.2176408256    1.8172557991    0.7093278321
H     -1.2759343389    1.4870273462   -1.0356424885
H     -0.6814271911   -0.8949295535   -0.5982035978
H     -0.6276921343   -0.5687058800    1.1335113680
H      1.1929187937    0.7475892240   -0.9679520431
H      1.6795547965   -0.5234279144    0.1559359643
H      1.2465597868    1.0747030538    0.7677352390
H     -7.1301383700   -0.4517854754   -0.0869919898
C     -9.7367771171    0.1817969872   -0.2344057760
Cl   -10.3691062204    3.2061900144   -0.2121517470
H     -7.8359665146    4.4340797093   -0.0137170477
H     -5.5596193331    3.5365413878    0.1314287011
F     -9.3458314192   -1.0981046575   -0.2377158787
F    -10.5887206500    0.3205954997    0.7954165406
F    -10.4537442361    0.3675262972   -1.3555259505





--Link1--
%chk=29CA_c2.M062X_6-311pGd_opt_water_GD3.chk
# M062X/6-311+G* SCF=Tight INT(grid=ultrafine)     SCRF=(SMD,Solvent=h2o) EmpiricalDispersion=GD3  Freq=Noraman 
geom=check guess=read IOP(2/17=4)

29CA_c2.M062X_6-311pGd_opt_water_GD3

0 1



