%chk=29CA.MP2_6-31pGd.chk
# MP2/Gen 6D SCF=Tight INT(grid=ultrafine)    

29CA.MP2_6-31pGd

0 1
C     -6.1884726944    1.2708506961    0.0098388012
N     -4.8985843131    0.7251385156    0.0120111908
C     -3.7052271321    1.4006634757   -0.0291994526
O     -3.5605996156    2.5943976032   -0.0747153700
O     -2.6999251114    0.5090928486   -0.0106726713
C     -1.3789049779    1.0711693764   -0.0496462840
C     -0.3909611660   -0.0748866358   -0.0215811225
C      1.0446217515    0.4418911681   -0.0605761812
C     -6.4410499935    2.6431988128   -0.0364035918
C     -7.7522748417    3.1075462676   -0.0353376714
C     -8.8205077866    2.2139602000    0.0116162297
C     -8.5689061367    0.8495246288    0.0576045416
C     -7.2657680572    0.3831264348    0.0567015602
H     -4.8219904553   -0.2804542175    0.0474905383
H     -1.2534154948    1.7362071636    0.8082452829
H     -1.2780638137    1.6717300232   -0.9569276035
H     -0.5831104770   -0.7315151266   -0.8744850897
H     -0.5585229223   -0.6672951028    0.8820217353
H      1.2332644836    1.0215215271   -0.9674378891
H      1.7582087215   -0.3826702318   -0.0404230569
H      1.2579608751    1.0859927514    0.7959158978
H     -5.6216794759    3.3444373264   -0.0729870546
C     -7.9934773873    4.5970466040   -0.0858574637
Cl   -10.4717797520    2.7538704659    0.0146399129
H     -9.3995886316    0.1559723915    0.0940690466
H     -7.0843149257   -0.6863665110    0.0929510234
F     -6.8461059374    5.2837220280   -0.1264749732
F     -8.6985990842    4.9498230623   -1.1687166499
F     -8.6689956484    5.0278044546    0.9876363646

@/home/507/hio507/Basis/6-31pGd.gbs/N


