%NprocShared=6
%Mem=16000MB
%chk=NM3.M062X_6-311pGd_opt_Pentadecane_GD3.chk
# M062X/6-311+G* SCF=Tight INT(grid=ultrafine) OPT IOP(2/17=4)   EmpiricalDispersion=GD3   SCRF=(SMD,Solvent=n-Pentadecane) MaxDisk=10000MB

NM3.M062X_6-311pGd_opt_Pentadecane_GD3

0 1
C     -6.0171491767    1.1961547180    0.2339292747
N     -4.7568697076    0.6110786993    0.1073734746
C     -3.5229676261    1.2531960030    0.0928557941
O     -3.3885979424    2.4526784503    0.2333135637
N     -2.4712900846    0.3982251375   -0.0679635235
C     -1.1182944827    0.9203138782   -0.2057079308
C     -0.1004709340   -0.2018797167   -0.0633805370
C      1.3259759426    0.3177486821   -0.2008604051
C     -6.2376908325    2.5753705268    0.2751677295
C     -7.5421628512    3.0440653863    0.3880756140
C     -8.6413894261    2.2016973340    0.4620194826
C     -8.3945982063    0.8357873598    0.4222569715
C     -7.1150699881    0.3264242833    0.3107570127
H     -4.7467043124   -0.3992502482    0.1111580803
H     -2.6442320231   -0.5264852940   -0.4358668393
H     -0.9696101280    1.6709479466    0.5721127537
H     -0.9971879009    1.4273603938   -1.1701523054
H     -0.2879088401   -0.9659972480   -0.8267658709
H     -0.2359994062   -0.6840108740    0.9094892734
H      1.4858349566    0.7835356708   -1.1766424045
H      2.0525385666   -0.4900045829   -0.0958384409
H      1.5475904818    1.0656836002    0.5646076909
H     -5.4070132328    3.2634359980    0.2271844786
Cl    -9.7375549426   -0.2726105791    0.5161365254
H     -6.9650414252   -0.7474161529    0.2841232651
C     -7.7423422168    4.5342687951    0.3962314679
H     -9.6492372970    2.5841029123    0.5517591344
F     -7.4732797985    5.0765056410   -0.8041166963
F     -8.9988467331    4.8808506645    0.7056105066
F     -6.9361404328    5.1426926145    1.2783128601





--Link1--
%chk=NM3.M062X_6-311pGd_opt_Pentadecane_GD3.chk
# M062X/6-311+G* SCF=Tight INT(grid=ultrafine)   EmpiricalDispersion=GD3   SCRF=(SMD,Solvent=n-Pentadecane)  Freq=Noraman MaxDisk=10000MB
geom=check guess=read IOP(2/17=4)

NM3.M062X_6-311pGd_opt_Pentadecane_GD3

0 1



