%NprocShared=6
%Mem=16000MB
%chk=NM3_c2.M062X_6-311pGd_opt_water_GD3.chk
# M062X/6-311+G* SCF=Tight INT(grid=ultrafine) OPT IOP(2/17=4)   EmpiricalDispersion=GD3   SCRF=(SMD,Solvent=h2o) MaxDisk=10000MB

NM3_c2.M062X_6-311pGd_opt_water_GD3

0 1
C     -5.9716264448    1.3930150894    0.3971994893
N     -4.7328931266    0.7491349645    0.4271326467
C     -3.5130642019    1.3065444220    0.0837068633
O     -3.3916142717    2.4789576118   -0.2790430381
N     -2.4684392945    0.4616256187    0.1741095548
C     -1.1187724484    0.8868638311   -0.1761129014
C     -0.1455465353   -0.2699914241   -0.0227134689
C      1.2733216714    0.1551372846   -0.3798704318
C     -7.1111409883    0.5955689022    0.2290637457
C     -8.3637454287    1.1814096200    0.2374501120
C     -8.5354642512    2.5546323332    0.3971395134
C     -7.3935813354    3.3173216627    0.5653361517
C     -6.1169855959    2.7700590859    0.5793755754
H     -4.7674684820   -0.2601881332    0.5059275845
H     -2.6082893922   -0.4837067053    0.5050601596
H     -0.8194386169    1.7192495145    0.4674724844
H     -1.1107174207    1.2517998047   -1.2070013063
H     -0.4634718105   -1.0960867583   -0.6663313902
H     -0.1794558072   -0.6354826225    1.0084546214
H      1.3293655393    0.5062069209   -1.4134733849
H      1.9718230451   -0.6765351301   -0.2712126498
H      1.6151555629    0.9661357422    0.2682920213
H     -6.9987451794   -0.4739220450    0.0947917614
Cl    -7.5588780462    5.0420472217    0.7875131760
H     -5.2571169543    3.4019929318    0.7424964913
C     -9.5947411035    0.3418612894    0.0642007750
H     -9.5202474291    3.0060733610    0.3937914067
F    -10.4181273697    0.4385099267    1.1243116770
F    -10.3153206973    0.7268240552   -1.0048921870
F     -9.3224635869   -0.9580283757   -0.0980750522





--Link1--
%chk=NM3_c2.M062X_6-311pGd_opt_water_GD3.chk
# M062X/6-311+G* SCF=Tight INT(grid=ultrafine)   EmpiricalDispersion=GD3   SCRF=(SMD,Solvent=h2o)  Freq=Noraman MaxDisk=10000MB
geom=check guess=read IOP(2/17=4)

NM3_c2.M062X_6-311pGd_opt_water_GD3

0 1



