%chk=29.M062X_6-311pGd_opt_water_GD3.chk
# M062X/6-311+G* SCF=Tight INT(grid=ultrafine) OPT IOP(2/17=4)   EmpiricalDispersion=GD3  SCRF=(SMD,Solvent=h2o)

29.M062X_6-311pGd_opt_water_GD3

0 1
C     -6.1758165467    1.2511812705    0.7385647471
N     -4.8649622821    0.8036640241    0.9307329731
C     -3.7412485325    1.2667743025    0.2701473481
O     -3.7808257684    2.1813479343   -0.5569062831
N     -2.5978885739    0.6358615301    0.6013222721
C     -1.3295662303    0.9874015319   -0.0250192481
C     -0.2191459684    0.0889073515    0.4934666051
C      1.1166467793    0.4395655610   -0.1501423879
C     -6.4808474817    2.5574406530    0.3491810288
C     -7.8069228462    2.9494399981    0.2045836331
C     -8.8393963189    2.0493849586    0.4637955856
C     -8.5416837430    0.7575722585    0.8722649740
C     -7.2205060298    0.3619911680    1.0047604740
H     -4.7739528024   -0.0776721607    1.4216342803
H     -2.6046137862   -0.0824145468    1.3130888745
H     -1.0953764030    2.0353552566    0.1843571821
H     -1.4219431188    0.8840286581   -1.1097678002
H     -0.4737898339   -0.9549543159    0.2855914155
H     -0.1499769819    0.1915078612    1.5809841045
H      1.0712050964    0.3239155007   -1.2360970621
H      1.9135930754   -0.2070062745    0.2216578143
H      1.3969230718    1.4738681255    0.0651398203
H     -5.6899030328    3.2690757721    0.1698579254
C     -8.1036371958    4.3609941579   -0.2209303702
Cl   -10.5147189260    2.5034915406    0.2862587546
H     -9.3417438403    0.0572855626    1.0780171744
H     -6.9947109191   -0.6519367892    1.3171341601
F     -8.7870676545    4.4093106284   -1.3776144795
F     -8.8409112105    5.0218979464    0.6882927744
F     -6.9907919962    5.0812905350   -0.4052962901





--Link1--
%chk=29.M062X_6-311pGd_opt_water_GD3.chk
# M062X/6-311+G* SCF=Tight INT(grid=ultrafine)     SCRF=(SMD,Solvent=h2o)EmpiricalDispersion=GD3 Freq=Noraman 
geom=check guess=read IOP(2/17=4)

29.M062X_6-311pGd_opt_water_GD3

0 1



