%chk=29.M062X_6-311pGd_opt_Pentadecane_GD3.chk
# M062X/6-311+G* SCF=Tight INT(grid=ultrafine) OPT IOP(2/17=4)   EmpiricalDispersion=GD3  SCRF=(SMD,Solvent=n-Pentadecane)

29.M062X_6-311pGd_opt_Pentadecane_GD3

0 1
C     -6.1891032283    1.2291933779    0.6880326296
N     -4.8876256115    0.7298574574    0.7851417532
C     -3.7261950829    1.2897963085    0.2669477050
O     -3.7064551788    2.3221867127   -0.3744703872
N     -2.6056975627    0.5531802479    0.5265137696
C     -1.2938698132    1.0670271964    0.1557975013
C     -0.2395967180   -0.0198270887    0.3044152356
C      1.1461691813    0.4904904453   -0.0734212577
C     -6.5006305874    2.4928574409    0.1770142156
C     -7.8237404825    2.9200982618    0.1364614192
C     -8.8495887675    2.1004273795    0.6027246945
C     -8.5439154341    0.8456901728    1.1101409825
C     -7.2288741581    0.4161888386    1.1508203993
H     -4.8108583064   -0.1941552225    1.1859982433
H     -2.6346383460   -0.1339288020    1.2664724568
H     -1.0343062216    1.9383838873    0.7684016774
H     -1.3474503814    1.4075712982   -0.8795213936
H     -0.5143337637   -0.8713161115   -0.3255886533
H     -0.2288207541   -0.3797617904    1.3399555294
H      1.1690383079    0.8360645441   -1.1100238984
H      1.8981208595   -0.2937023039    0.0316161819
H      1.4472782302    1.3269978925    0.5623687381
H     -5.7155759239    3.1344116501   -0.1907870989
C     -8.1246579758    4.2886047101   -0.4201595310
Cl   -10.5171466786    2.6018114566    0.5681544177
H     -9.3388834332    0.2053524903    1.4718227205
H     -7.0065572951   -0.5687361154    1.5494079242
F     -8.9369479221    4.2301009418   -1.4863277884
F     -8.7227101816    5.0782081346    0.4852123206
F     -7.0160067709    4.9254965894   -0.8140605068





--Link1--
%chk=29.M062X_6-311pGd_opt_Pentadecane_GD3.chk
# M062X/6-311+G* SCF=Tight INT(grid=ultrafine)     SCRF=(SMD,Solvent=n-Pentadecane)EmpiricalDispersion=GD3 Freq=Noraman 
geom=check guess=read IOP(2/17=4)

29.M062X_6-311pGd_opt_Pentadecane_GD3

0 1



