%chk=29_c2.M062X_6-311pGd_opt_water_GD3.chk
# M062X/6-311+G* SCF=Tight INT(grid=ultrafine) OPT IOP(2/17=4)   EmpiricalDispersion=GD3  SCRF=(SMD,Solvent=h2o)

29_c2.M062X_6-311pGd_opt_water_GD3

0 1
C     -6.2281353013    1.4314432209    0.1531455540
N     -4.9821516952    0.8148966474    0.3106322843
C     -3.7565500925    1.3857512886    0.0182542953
O     -3.6385017306    2.5432575442   -0.3922451323
N     -2.6988569812    0.5757902774    0.2184063357
C     -1.3425441806    1.0118875928   -0.0896993698
C     -0.3565415232   -0.1178751095    0.1566053579
C      1.0690566215    0.3205167744   -0.1549294247
C     -7.3287840908    0.6127102888   -0.1124819743
C     -8.6017446716    1.1510500431   -0.2335668820
C     -8.7849351741    2.5278981402   -0.1032733886
C     -7.6983510513    3.3454550300    0.1649781680
C     -6.4264709445    2.8056810427    0.3036714429
H     -5.0019129386   -0.1909626714    0.4281648043
H     -2.8388938797   -0.3646288795    0.5625952743
H     -1.0872570982    1.8764344841    0.5299584401
H     -1.2936942714    1.3329856792   -1.1340569413
H     -0.6299850948   -0.9762347194   -0.4648951392
H     -0.4304284375   -0.4406647610    1.1998416764
H      1.1650232953    0.6304199948   -1.1987151303
H      1.7770845601   -0.4918072070    0.0188793901
H      1.3666007135    1.1639128575    0.4734686048
H     -7.1807681971   -0.4551647760   -0.2226753287
C     -9.7611321495    0.2367401651   -0.5147043656
Cl   -10.3624108986    3.2562177123   -0.2617363970
H     -7.8451477365    4.4122966016    0.2813855513
H     -5.5978199516    3.4568855636    0.5392304290
F     -9.3862058845   -1.0455883877   -0.5978074155
F    -10.7018461707    0.2995559547    0.4431947189
F    -10.3729350447    0.5335196078   -1.6741654381





--Link1--
%chk=29_c2.M062X_6-311pGd_opt_water_GD3.chk
# M062X/6-311+G* SCF=Tight INT(grid=ultrafine)     SCRF=(SMD,Solvent=h2o)EmpiricalDispersion=GD3 Freq=Noraman 
geom=check guess=read IOP(2/17=4)

29_c2.M062X_6-311pGd_opt_water_GD3

0 1



