%chk=CP19CA.M062X_6-311pGd_opt_Pentadecane_GD3.chk
# M062X/6-311+G* SCF=Tight INT(grid=ultrafine) OPT IOP(2/17=4)   EmpiricalDispersion=GD3  SCRF=(SMD,Solvent=n-Pentadecane)

CP19CA.M062X_6-311pGd_opt_Pentadecane_GD3

0 1
C     -6.2965756352    1.2831579713    0.0195617458
N     -5.0005341367    0.7679539454    0.0440041565
C     -3.8176345520    1.4637348782    0.0023319787
O     -3.6970828244    2.6606328361   -0.0637045756
O     -2.7995235616    0.5944958799    0.0470112599
C     -1.4834196676    1.1752929716    0.0110213205
C     -0.4785957921    0.0462620002    0.0702369855
C      0.9460698588    0.5901648490    0.0356846506
C     -6.5759574034    2.6509142198   -0.0540978644
C     -7.8973816498    3.0704833873   -0.0732296899
C     -8.9583627463    2.1673083233   -0.0210891647
C     -8.6625124254    0.8082028183    0.0520590088
C     -7.3532445285    0.3668520712    0.0724036203
H     -4.9105081690   -0.2372049892    0.0986920785
H     -1.3765946869    1.8557511322    0.8591784551
H     -1.3819422546    1.7583357603   -0.9074410742
H     -0.6484676766   -0.6285544015   -0.7732841955
H     -0.6429270244   -0.5314526238    0.9840213623
H      1.1335169577    1.1562250459   -0.8803706717
H      1.6750554971   -0.2206295254    0.0782987655
H      1.1390200618    1.2538255508    0.8824692606
H     -5.7799899737    3.3782322424   -0.0959207517
Cl    -8.1911184562    4.7836464528   -0.1656469900
C    -10.3889805553    2.6234873532   -0.0419094281
H     -9.4696165627    0.0878964535    0.0935275424
H     -7.1439726062   -0.6957834917    0.1296425763
F    -11.2362423319    1.5842378334    0.0170863740
F    -10.6881700553    3.4215069743    0.9945523557
F    -10.6942270997    3.3042940811   -1.1572290910





--Link1--
%chk=CP19CA.M062X_6-311pGd_opt_Pentadecane_GD3.chk
# M062X/6-311+G* SCF=Tight INT(grid=ultrafine)     SCRF=(SMD,Solvent=n-Pentadecane) EmpiricalDispersion=GD3  Freq=Noraman 
geom=check guess=read IOP(2/17=4)

CP19CA.M062X_6-311pGd_opt_Pentadecane_GD3

0 1



