%chk=CP19CA_c2.M062X_6-311pGd_opt_Pentadecane_GD3.chk
# M062X/6-311+G* SCF=Tight INT(grid=ultrafine) OPT IOP(2/17=4)   EmpiricalDispersion=GD3  SCRF=(SMD,Solvent=n-Pentadecane)

CP19CA_c2.M062X_6-311pGd_opt_Pentadecane_GD3

0 1
C     -6.2387913469    1.4823796161    0.0315477285
N     -4.9668778436    0.9117437760    0.0878328969
C     -3.7566928145    1.5498908724   -0.0326431370
O     -3.5859070110    2.7291563628   -0.2099948771
O     -2.7765652770    0.6439747403    0.0792389271
C     -1.4360401581    1.1557469411   -0.0255379743
C     -0.4856350874   -0.0115797331    0.1252437750
C      0.9635529532    0.4534412209    0.0249421660
C     -7.3266633814    0.6133577674    0.1829348030
C     -8.6187482946    1.1000807451    0.1394897345
C     -8.8672348929    2.4602159663   -0.0550313811
C     -7.7781881803    3.3117571809   -0.2038665302
C     -6.4721125545    2.8461856563   -0.1638233239
H     -4.9142455999   -0.0868937152    0.2334197820
H     -1.2836655754    1.9044613834    0.7555701916
H     -1.3221771926    1.6470140453   -0.9948726133
H     -0.7020091351   -0.7509545673   -0.6508158306
H     -0.6636907313   -0.4949156305    1.0898385178
H      1.1644804442    0.9234663908   -0.9411785984
H      1.6514679522   -0.3865835997    0.1333749985
H      1.2029210562    1.1803899150    0.8052837847
H     -7.1644700299   -0.4477108847    0.3353896287
Cl    -9.9232587242   -0.0358282741    0.3348484424
C    -10.2647842247    3.0064317347   -0.1049208406
H     -7.9518815659    4.3696368799   -0.3555778032
H     -5.6478372271    3.5316327638   -0.2825095880
F    -10.2690462444    4.3329371884   -0.2998424388
F    -10.9889188711    2.4688863446   -1.0993285018
F    -10.9425304420    2.7822189130    1.0319880614





--Link1--
%chk=CP19CA_c2.M062X_6-311pGd_opt_Pentadecane_GD3.chk
# M062X/6-311+G* SCF=Tight INT(grid=ultrafine)     SCRF=(SMD,Solvent=n-Pentadecane) EmpiricalDispersion=GD3  Freq=Noraman 
geom=check guess=read IOP(2/17=4)

CP19CA_c2.M062X_6-311pGd_opt_Pentadecane_GD3

0 1



