%chk=CP19CA_c2.M062X_6-311pGd_opt_water_GD3.chk
# M062X/6-311+G* SCF=Tight INT(grid=ultrafine) OPT IOP(2/17=4)   EmpiricalDispersion=GD3  SCRF=(SMD,Solvent=h2o)

CP19CA_c2.M062X_6-311pGd_opt_water_GD3

0 1
C     -6.2380374147    1.4883041888   -0.0003239013
N     -4.9691722097    0.9077240898    0.0371440412
C     -3.7601029246    1.5378714883   -0.0306437921
O     -3.5817842844    2.7331995938   -0.1464109333
O     -2.7768943416    0.6350097138    0.0519694498
C     -1.4304676185    1.1539584871   -0.0027198927
C     -0.4844576235   -0.0204531357    0.1013967841
C      0.9631921423    0.4557018574    0.0509427298
C     -7.3202797385    0.6231107468    0.2090557566
C     -8.6102721740    1.1117665854    0.1795466670
C     -8.8651111474    2.4651511467   -0.0545159087
C     -7.7825235469    3.3118749858   -0.2619965194
C     -6.4762969038    2.8434777242   -0.2399992704
H     -4.9333162681   -0.0966494781    0.1651518881
H     -1.2936554650    1.8542290830    0.8238201675
H     -1.3025509016    1.6899151126   -0.9454345959
H     -0.6842523825   -0.7151282626   -0.7189767696
H     -0.6761425134   -0.5534859113    1.0366103047
H      1.1734507551    0.9788600499   -0.8852944001
H      1.6526231723   -0.3867944064    0.1251657110
H      1.1814594132    1.1404485051    0.8743045317
H     -7.1442257513   -0.4299267366    0.3958286639
Cl    -9.9141399907   -0.0147764567    0.4468686789
C    -10.2612754814    3.0071207285   -0.0868735389
H     -7.9560860209    4.3640841017   -0.4489083288
H     -5.6625342552    3.5296458465   -0.4110633807
F    -10.2821924108    4.3245914400   -0.3263919934
F    -11.0157756369    2.4326529422   -1.0418883099
F    -10.9147284776    2.8190559701    1.0746361609





--Link1--
%chk=CP19CA_c2.M062X_6-311pGd_opt_water_GD3.chk
# M062X/6-311+G* SCF=Tight INT(grid=ultrafine)     SCRF=(SMD,Solvent=h2o) EmpiricalDispersion=GD3  Freq=Noraman 
geom=check guess=read IOP(2/17=4)

CP19CA_c2.M062X_6-311pGd_opt_water_GD3

0 1



