$molecule
  0 1
    C     -5.9396901522    0.7758693090    0.7655378500
    N     -4.6395265642    0.2574574751    0.8246577716
    C     -3.4504987326    0.9545662909    0.6409201008
    O     -3.4026197702    2.1402401561    0.3911123898
    N     -2.3369198371    0.1675096577    0.7915476587
    C     -1.0109918701    0.6912852672    0.4918409895
    C     -0.5443757832    0.3722031251   -0.9281825296
    C     -1.4569758152    0.9572628141   -2.0017802530
    C     -6.9784382200   -0.0597890020    1.1840901500
    C     -8.3010412172    0.3557402292    1.1378825224
    C     -8.6037084785    1.6333055363    0.6685693988
    C     -7.5761500663    2.4669297494    0.2532406189
    C     -6.2513072699    2.0541444847    0.2943749996
    H     -0.3110569068    0.2862161530    1.2264897775
    H     -1.0631798623    1.7697174466    0.6426281545
    H     -0.4693153598   -0.7149342099   -1.0496443044
    H      0.4716499199    0.7626646867   -1.0437384598
    H     -2.4659224608    0.5427770851   -1.9363644369
    H     -1.0749734849    0.7399688441   -3.0008741757
    H     -1.5446481667    2.0401585690   -1.8943574145
    H     -6.7560605303   -1.0547226280    1.5528256361
    C     -9.3833137492   -0.5866440949    1.5990994201
    Cl   -10.2399919835    2.2130046841    0.5895195449
    H     -7.8176640930    3.4584203392   -0.1096572444
    H     -5.4652179938    2.7191458358   -0.0277777333
    F     -8.8725441875   -1.7589559745    2.0095328751
    F    -10.0797912453   -0.0874869880    2.6267076156
    F    -10.2548533064   -0.8658064367    0.6227026563
    H     -2.4470616288   -0.8350871880    0.7571851451
    H     -4.5697911841   -0.6811312163    1.1876012761
    
$end

$rem

    JOBTYPE               sp
    METHOD                CCSD(T)
    BASIS                 6-31+G*
    CC_BACKEND            XM
    
    MEM_TOTAL             60000
$end
