%chk=29_c2.M062X_6-311pGd_opt_Pentadecane_GD3.chk
# M062X/6-311+G* SCF=Tight INT(grid=ultrafine) OPT IOP(2/17=4)   EmpiricalDispersion=GD3  SCRF=(SMD,Solvent=n-Pentadecane)

29_c2.M062X_6-311pGd_opt_Pentadecane_GD3

0 1
C     -6.2262881133    1.4490118972   -0.0733473783
N     -4.9790242124    0.8210447296   -0.0203166525
C     -3.7269434640    1.4209450712   -0.0526177305
O     -3.5581429159    2.6206804617   -0.1586781894
N     -2.6957232245    0.5295066401    0.0226514906
C     -1.3229248012    1.0070617357    0.1183129629
C     -0.3470975105   -0.1467204033   -0.0600980748
C      1.0990513970    0.3264483827    0.0322567310
C     -7.3534186932    0.6204666957   -0.0908349235
C     -8.6345984502    1.1492149924   -0.1306123195
C     -8.8081834388    2.5329747160   -0.1545413856
C     -7.6958989775    3.3596970319   -0.1381390072
C     -6.4108745580    2.8348186079   -0.0983393962
H     -5.0036596628   -0.1886410904   -0.0386759370
H     -2.8799067800   -0.4085538719    0.3485463512
H     -1.1550318503    1.5042665326    1.0808279825
H     -1.1727474326    1.7568744364   -0.6603331770
H     -0.5288194294   -0.6209757248   -1.0293848324
H     -0.5347509325   -0.9068346758    0.7073156722
H      1.3200006447    1.0686485031   -0.7389914343
H      1.7955044703   -0.5040001288   -0.0968148966
H      1.3046134081    0.7846157090    1.0030839533
H     -7.2263854670   -0.4558532385   -0.0716422836
C     -9.8144626156    0.2138121060   -0.1462784578
Cl   -10.3925816208    3.2535464533   -0.2047020054
H     -7.8340085851    4.4339738907   -0.1580252964
H     -5.5583799892    3.4958928281   -0.0898819940
F     -9.4303231929   -1.0719518206   -0.1184325204
F    -10.6187435902    0.3966371808    0.9101649415
F    -10.5664904121    0.3657723521   -1.2450121929





--Link1--
%chk=29_c2.M062X_6-311pGd_opt_Pentadecane_GD3.chk
# M062X/6-311+G* SCF=Tight INT(grid=ultrafine)     SCRF=(SMD,Solvent=n-Pentadecane)EmpiricalDispersion=GD3 Freq=Noraman 
geom=check guess=read IOP(2/17=4)

29_c2.M062X_6-311pGd_opt_Pentadecane_GD3

0 1



