$molecule
  0 1
    C     -5.9286419743    1.4199467089    0.3515334142
    N     -4.7012333765    0.7531887212    0.3602557310
    C     -3.4537066723    1.2828126907    0.0351216639
    O     -3.2844584977    2.4223218776   -0.3386736204
    N     -2.4358024631    0.3732090485    0.1525047662
    C     -1.0621254658    0.8171195865   -0.0512339121
    C     -0.1206670757   -0.3769670700   -0.1048904808
    C      1.3240131000    0.0600420145   -0.3257606922
    C     -7.0724701868    0.6452797662    0.5758402703
    C     -8.3081775427    1.2611512814    0.5973993595
    C     -8.4775023079    2.6224656316    0.4067512601
    C     -7.3253615959    3.3639953635    0.1870175277
    C     -6.0586037630    2.7985742413    0.1549598070
    H     -4.7552337412   -0.2479610642    0.4726093448
    H     -2.5667442108   -0.4195011013    0.7641340313
    H     -0.7600056162    1.5117429626    0.7413172028
    H     -1.0311635228    1.3730699919   -0.9895662463
    H     -0.4413969769   -1.0477241525   -0.9074073986
    H     -0.1926109378   -0.9442488440    0.8307251471
    H      1.4282518422    0.6079313839   -1.2651417863
    H      1.9951652794   -0.7989997389   -0.3654469727
    H      1.6666872168    0.7136591306    0.4798830046
    H     -6.9894210667   -0.4233008500    0.7316570649
    Cl    -7.4759037931    5.0781374192   -0.0585301882
    H     -5.1899231620    3.4119262800   -0.0272143493
    S     -9.7734808973    0.2393156020    0.8894509720
    H     -9.4508298994    3.0919793099    0.4253871198
    F     -9.0631115854   -0.5508785474    2.1088463591
    F    -10.3888824641    1.3005835649    1.9366800450
    F     -9.2643450051   -0.9044361955   -0.1339815401
    F    -10.5896281900    0.9474200674   -0.3078211058
    F    -11.0713054480   -0.6694750804    1.1490042015
    
$end

$rem

    JOBTYPE               sp
    METHOD                CCSD(T)
    BASIS                 6-31+G*
    CC_BACKEND            XM
    
    MEM_TOTAL             60000
$end
