%NprocShared=6
%Mem=192000MB
%chk=CP22.DSDPBEP86_AUG-cc-PVTZ.chk
# DSDPBEP86/AUG-cc-PVTZ SCF=Tight INT(grid=ultrafine)  MaxDisk=60000MB

CP22.DSDPBEP86_AUG-cc-PVTZ

0 1
C     -5.9449858374    1.1845279443    0.2478725437
N     -4.6898709366    0.5720356328    0.2269034803
C     -3.4571155953    1.1942612069    0.0313888362
O     -3.3294990904    2.3797267246   -0.1773056887
N     -2.4014264383    0.3207204343    0.0694317654
C     -1.0457093923    0.8524693639   -0.0092716588
C     -0.0393904459   -0.2778803414   -0.1648991048
C      1.3871365511    0.2541829455   -0.2601830571
C     -6.1220392974    2.5723224700    0.2767562977
C     -7.4168389174    3.0589661629    0.3236412747
C     -8.5487156523    2.2606952850    0.3433463984
C     -8.3384048228    0.8900092109    0.3136447808
C     -7.0660280204    0.3480608181    0.2659324870
H     -4.7018083567   -0.4357678041    0.1829105246
H     -2.5151412030   -0.5453296537    0.5762482058
H     -0.8162789209    1.4547957722    0.8774995276
H     -1.0048474694    1.5242145698   -0.8680994785
H     -0.2889054464   -0.8570141514   -1.0588853113
H     -0.1189121126   -0.9615093937    0.6887801975
H      1.5002908474    0.9193927323   -1.1193337131
H      2.1058593520   -0.5588307932   -0.3717388020
H      1.6587403017    0.8186691137    0.6349470091
H     -5.2698746932    3.2327400721    0.2536706737
Cl    -9.7087063898   -0.1796398148    0.3350564792
H     -6.9491539972   -0.7298908571    0.2438804575
S     -7.6444805064    4.8579506970    0.3627905896
H     -9.5473466163    2.6723101731    0.3789373653
F     -6.5566931056    5.0933501664   -0.8019815006
F     -8.8183506377    4.7985674347   -0.7465749930
F     -6.4951710465    5.0492249723    1.4778767696
F     -8.7570325260    4.7548853520    1.5314398684
F     -7.8540595781    6.4499035543    0.4000377758




