%chk=CP21.M062X_6-311pGd_opt_Pentadecane_GD3.chk
# M062X/6-311+G* SCF=Tight INT(grid=ultrafine) OPT IOP(2/17=4)   EmpiricalDispersion=GD3  SCRF=(SMD,Solvent=n-Pentadecane)

CP21.M062X_6-311pGd_opt_Pentadecane_GD3

0 1
C     -6.0931503413    1.2851916068    0.3127687938
N     -4.8422635216    0.6924371446    0.2065700897
C     -3.6086535781    1.3175851694    0.0204354037
O     -3.4823621481    2.5115054487   -0.1619023109
N     -2.5585028990    0.4498685577    0.0370749246
C     -1.1938585549    0.9506031406   -0.0655460357
C     -0.2200549823   -0.2044361241   -0.2458387785
C      1.2165665639    0.2909817148   -0.3651696979
C     -6.3032412322    2.6735776161    0.2921119105
C     -7.5885982906    3.1723351468    0.4233101946
C     -8.6610639934    2.2975050549    0.5717847782
C     -8.4726836510    0.9163606753    0.5917159338
C     -7.1925363024    0.4197533448    0.4629094400
H     -4.8432885029   -0.3179770224    0.2173177269
H     -2.6837761011   -0.4729882213    0.4283942371
H     -0.9339954734    1.5358528280    0.8237515064
H     -1.1459536758    1.6272305152   -0.9207609985
H     -0.4994574447   -0.7710086610   -1.1395008030
H     -0.3034339786   -0.8892422898    0.6060958338
H      1.3325952680    0.9575602807   -1.2233978806
H      1.9113421337   -0.5407618522   -0.4944722794
H      1.5209363427    0.8425400750    0.5279491619
H     -5.4680485448    3.3458500515    0.1770703080
C    -10.8240930008    3.0230497221   -1.0900894676
H     -9.3168957999    0.2484305509    0.7166443065
H     -7.0304005757   -0.6529330268    0.4863750733
F    -10.7877242326    1.8134056611   -1.6337040046
F    -12.0600010535    3.4905051465   -1.1477156883
F    -10.0189719638    3.8263949739   -1.7709582797
S    -10.2889512799    2.9393102498    0.6959500412
O    -10.2550847025    4.3188994630    1.1377117320
O    -11.1682748657    1.9570005779    1.2990991633
H     -7.7575496180    4.2431424816    0.4184456654





--Link1--
%chk=CP21.M062X_6-311pGd_opt_Pentadecane_GD3.chk
# M062X/6-311+G* SCF=Tight INT(grid=ultrafine)     SCRF=(SMD,Solvent=n-Pentadecane)EmpiricalDispersion=GD3 Freq=Noraman 
geom=check guess=read IOP(2/17=4)

CP21.M062X_6-311pGd_opt_Pentadecane_GD3

0 1



